36 8
3 959
6 895
6 911
4 757
3 599
3 89
3 588
1 905
3 525
2 250
6 748
7 547
4 323
6 113
6 380
1 432
6 120
4 897
7 967
1 318
4 970
2 722
6 448
1 968
4 316
7 25
4 194
5 38
2 518
7 454
7 74
2 478
2 404
4 385
3 446
2 662
